(set-logic QF_S)
(declare-fun var_0xINPUT_25522 () String)
(assert (and (= (len var_0xINPUT_25522) 0) (= (len var_0xINPUT_25522) 0) (not (= var_0xINPUT_25522 "Example:")) (= (len var_0xINPUT_25522) 0) (not (= var_0xINPUT_25522 "4PH2ujcENG"))))
(check-sat var_0xINPUT_25522)